%chk=D:\homework2\Problem3\4-31G.chk
# hf/4-31g opt freq

Title Card Required

0 1
 O                 -2.65822787   -3.92405057    0.00000000
 H                 -1.69822787   -3.92405057    0.00000000
 H                 -2.97868246   -3.01911474    0.00000000



