%chk=D:\homework\6-31G(d_p).chk
# hf/6-31g(d,p) opt freq

Title Card Required

0 1
 O                 -2.65822787   -3.92405057    0.00000000
 H                 -1.69822787   -3.92405057    0.00000000
 H                 -2.97868246   -3.01911474    0.00000000



