%chk=D:\homework2\Problem2\2-scan.chk
# scan rhf/6-311+g(d) guess=(mix,always) geom=nocrowd

Title Card Required

0 1
 C              
 H                  1            B1
 H                  1            B2    2            A1
 H                  1            B3    2            A2    3            D1    0
 O                  1            B4    2            A3    3            D2    0
 H                  5            B5    1            A4    2            D3    0

   B1             1.08005953
   B2             1.08668321
   B3             1.08668367
   B4             1.39857051
   B5             0.93963827
   A1           108.54281003
   A2           108.54391369
   A3           107.15078044
   A4           110.81316402
   D1           118.20498451
   D2          -120.89785855
   D3           179.94397191 60 -6.000000

